unsat
(:SPACER-conj                         8
 :SPACER-inductive-gen                66
 :SPACER-inductive-gen-weaken-fail    107
 :SPACER-inductive-gen-weaken-success 6
 :SPACER-inductive-level              8
 :SPACER-max-depth                    11
 :SPACER-max-query-lvl                11
 :SPACER-non-local-gen                18
 :SPACER-num-active-lemmas            21
 :SPACER-num-ctp-blocked              26
 :SPACER-num-invariants               29
 :SPACER-num-is_invariant             157
 :SPACER-num-lemma-jumped             6
 :SPACER-num-lemmas                   77
 :SPACER-num-pobs                     45
 :SPACER-num-propagations             102
 :SPACER-num-queries                  49
 :SPACER-num-reach-queries            6
 :SPACER-num-reuse-reach-facts        6
 :SPACER-subsume-failed               1
 :SPACER-subsume-pob                  8
 :SPACER-subsume-success              25
 :added-eqs                           9662
 :arith-assert-diseq                  7518
 :arith-assert-lower                  26754
 :arith-assert-upper                  18016
 :arith-bound-prop                    814
 :arith-conflicts                     130
 :arith-eq-adapter                    2286
 :arith-fixed-eqs                     1090
 :arith-gcd-conflicts                 2
 :arith-gcd-tests                     2
 :arith-num-rows                      54
 :arith-offset-eqs                    904
 :arith-pivots                        1994
 :arith-row-summations                9508
 :arith-tableau-max-columns           130
 :arith-tableau-max-rows              54
 :conflicts                           1040
 :decisions                           26216
 :del-clause                          1872
 :final-checks                        400
 :iuc_solver.num_proxies              156
 :max-memory                          34.19
 :memory                              33.41
 :minimized-lits                      260
 :mk-bool-var                         3758
 :mk-clause                           4118
 :num-allocs                          135451341
 :num-checks                          1094
 :pool_solver.checks                  547
 :pool_solver.checks.sat              197
 :pool_solver.checks.undef            2
 :propagations                        107524
 :rlimit-count                        518981
 :time                                0.41
 :time.iuc_solver.get_iuc             0.05
 :time.iuc_solver.get_iuc.hyp_reduce1 0.01
 :time.iuc_solver.get_iuc.hyp_reduce2 0.02
 :time.iuc_solver.get_iuc.learn_core  0.01
 :time.pool_solver.proof              0.01
 :time.pool_solver.smt.total          0.17
 :time.pool_solver.smt.total.sat      0.08
 :time.pool_solver.smt.total.undef    0.00
 :time.spacer.ctp                     0.00
 :time.spacer.init_rules              0.00
 :time.spacer.mbp                     0.01
 :time.spacer.solve                   0.39
 :time.spacer.solve.propagate         0.06
 :time.spacer.solve.reach             0.33
 :time.spacer.solve.reach.children    0.02
 :time.spacer.solve.reach.cluster     0.04
 :time.spacer.solve.reach.gen.global  0.04
 :time.spacer.solve.reach.gen.ind     0.07
 :time.spacer.solve.reach.is-reach    0.00)
(:max-memory   34.19
 :memory       33.41
 :num-allocs   135451341
 :rlimit-count 518981
 :time         0.41
 :total-time   0.43)
